NAME obj
ROWS
 N  OBJ
 G  R0      
 G  R1      
 G  R2      
 G  R3      
 G  R4      
 G  R5      
 G  R6      
 G  R7      
 G  R8      
 G  R9      
 G  R10     
 G  R11     
 G  R12     
 G  R13     
 G  R14     
 G  R15     
 G  R16     
 G  R17     
 G  R18     
 G  R19     
 G  R20     
 G  R21     
 G  R22     
 G  R23     
 G  R24     
 G  R25     
 G  R26     
 G  R27     
 G  R28     
 G  R29     
 G  R30     
 G  R31     
 G  R32     
 G  R33     
 G  R34     
 G  R35     
 G  R36     
 G  R37     
 G  R38     
 G  R39     
 G  R40     
 G  R41     
 G  R42     
 G  R43     
 G  R44     
 G  R45     
 G  R46     
 G  R47     
 G  R48     
 G  R49     
 G  R50     
 G  R51     
 G  R52     
 G  R53     
 G  R54     
 G  R55     
 G  R56     
 G  R57     
 G  R58     
 G  R59     
 G  R60     
 G  R61     
 G  R62     
 G  R63     
 G  R64     
 G  R65     
 G  R66     
 G  R67     
 G  R68     
 G  R69     
 G  R70     
 G  R71     
 G  R72     
 G  R73     
 G  R74     
 G  R75     
 G  R76     
 G  R77     
 G  R78     
 G  R79     
 G  R80     
 G  R81     
 G  R82     
 G  R83     
 G  R84     
 G  R85     
 G  R86     
 G  R87     
 G  R88     
 G  R89     
 G  R90     
 G  R91     
 G  R92     
 G  R93     
 G  R94     
 G  R95     
 G  R96     
 G  R97     
 G  R98     
 G  R99     
 G  R100    
 G  R101    
 G  R102    
 G  R103    
 G  R104    
 G  R105    
 G  R106    
 G  R107    
 G  R108    
 G  R109    
 G  R110    
 G  R111    
 G  R112    
 G  R113    
 G  R114    
 G  R115    
 G  R116    
 G  R117    
 G  R118    
 G  R119    
 G  R120    
 G  R121    
 G  R122    
 G  R123    
 G  R124    
 G  R125    
COLUMNS
    X0        OBJ       1
    X0        R0        1
    X0        R1        1
    X0        R6        1
    X0        R21       1
    X0        R56       1
    X1        OBJ       1
    X1        R0        1
    X1        R2        1
    X1        R7        1
    X1        R22       1
    X1        R57       1
    X2        OBJ       1
    X2        R0        1
    X2        R3        1
    X2        R8        1
    X2        R23       1
    X2        R58       1
    X3        OBJ       1
    X3        R0        1
    X3        R4        1
    X3        R9        1
    X3        R24       1
    X3        R59       1
    X4        OBJ       1
    X4        R0        1
    X4        R5        1
    X4        R10       1
    X4        R25       1
    X4        R60       1
    X5        OBJ       1
    X5        R1        1
    X5        R2        1
    X5        R11       1
    X5        R26       1
    X5        R61       1
    X6        OBJ       1
    X6        R1        1
    X6        R3        1
    X6        R12       1
    X6        R27       1
    X6        R62       1
    X7        OBJ       1
    X7        R1        1
    X7        R4        1
    X7        R13       1
    X7        R28       1
    X7        R63       1
    X8        OBJ       1
    X8        R1        1
    X8        R5        1
    X8        R14       1
    X8        R29       1
    X8        R64       1
    X9        OBJ       1
    X9        R2        1
    X9        R3        1
    X9        R15       1
    X9        R30       1
    X9        R65       1
    X10       OBJ       1
    X10       R2        1
    X10       R4        1
    X10       R16       1
    X10       R31       1
    X10       R66       1
    X11       OBJ       1
    X11       R2        1
    X11       R5        1
    X11       R17       1
    X11       R32       1
    X11       R67       1
    X12       OBJ       1
    X12       R3        1
    X12       R4        1
    X12       R18       1
    X12       R33       1
    X12       R68       1
    X13       OBJ       1
    X13       R3        1
    X13       R5        1
    X13       R19       1
    X13       R34       1
    X13       R69       1
    X14       OBJ       1
    X14       R4        1
    X14       R5        1
    X14       R20       1
    X14       R35       1
    X14       R70       1
    X15       OBJ       1
    X15       R6        1
    X15       R7        1
    X15       R11       1
    X15       R36       1
    X15       R71       1
    X16       OBJ       1
    X16       R6        1
    X16       R8        1
    X16       R12       1
    X16       R37       1
    X16       R72       1
    X17       OBJ       1
    X17       R6        1
    X17       R9        1
    X17       R13       1
    X17       R38       1
    X17       R73       1
    X18       OBJ       1
    X18       R6        1
    X18       R10       1
    X18       R14       1
    X18       R39       1
    X18       R74       1
    X19       OBJ       1
    X19       R7        1
    X19       R8        1
    X19       R15       1
    X19       R40       1
    X19       R75       1
    X20       OBJ       1
    X20       R7        1
    X20       R9        1
    X20       R16       1
    X20       R41       1
    X20       R76       1
    X21       OBJ       1
    X21       R7        1
    X21       R10       1
    X21       R17       1
    X21       R42       1
    X21       R77       1
    X22       OBJ       1
    X22       R8        1
    X22       R9        1
    X22       R18       1
    X22       R43       1
    X22       R78       1
    X23       OBJ       1
    X23       R8        1
    X23       R10       1
    X23       R19       1
    X23       R44       1
    X23       R79       1
    X24       OBJ       1
    X24       R9        1
    X24       R10       1
    X24       R20       1
    X24       R45       1
    X24       R80       1
    X25       OBJ       1
    X25       R11       1
    X25       R12       1
    X25       R15       1
    X25       R46       1
    X25       R81       1
    X26       OBJ       1
    X26       R11       1
    X26       R13       1
    X26       R16       1
    X26       R47       1
    X26       R82       1
    X27       OBJ       1
    X27       R11       1
    X27       R14       1
    X27       R17       1
    X27       R48       1
    X27       R83       1
    X28       OBJ       1
    X28       R12       1
    X28       R13       1
    X28       R18       1
    X28       R49       1
    X28       R84       1
    X29       OBJ       1
    X29       R12       1
    X29       R14       1
    X29       R19       1
    X29       R50       1
    X29       R85       1
    X30       OBJ       1
    X30       R13       1
    X30       R14       1
    X30       R20       1
    X30       R51       1
    X30       R86       1
    X31       OBJ       1
    X31       R15       1
    X31       R16       1
    X31       R18       1
    X31       R52       1
    X31       R87       1
    X32       OBJ       1
    X32       R15       1
    X32       R17       1
    X32       R19       1
    X32       R53       1
    X32       R88       1
    X33       OBJ       1
    X33       R16       1
    X33       R17       1
    X33       R20       1
    X33       R54       1
    X33       R89       1
    X34       OBJ       1
    X34       R18       1
    X34       R19       1
    X34       R20       1
    X34       R55       1
    X34       R90       1
    X35       OBJ       1
    X35       R21       1
    X35       R22       1
    X35       R26       1
    X35       R36       1
    X35       R91       1
    X36       OBJ       1
    X36       R21       1
    X36       R23       1
    X36       R27       1
    X36       R37       1
    X36       R92       1
    X37       OBJ       1
    X37       R21       1
    X37       R24       1
    X37       R28       1
    X37       R38       1
    X37       R93       1
    X38       OBJ       1
    X38       R21       1
    X38       R25       1
    X38       R29       1
    X38       R39       1
    X38       R94       1
    X39       OBJ       1
    X39       R22       1
    X39       R23       1
    X39       R30       1
    X39       R40       1
    X39       R95       1
    X40       OBJ       1
    X40       R22       1
    X40       R24       1
    X40       R31       1
    X40       R41       1
    X40       R96       1
    X41       OBJ       1
    X41       R22       1
    X41       R25       1
    X41       R32       1
    X41       R42       1
    X41       R97       1
    X42       OBJ       1
    X42       R23       1
    X42       R24       1
    X42       R33       1
    X42       R43       1
    X42       R98       1
    X43       OBJ       1
    X43       R23       1
    X43       R25       1
    X43       R34       1
    X43       R44       1
    X43       R99       1
    X44       OBJ       1
    X44       R24       1
    X44       R25       1
    X44       R35       1
    X44       R45       1
    X44       R100      1
    X45       OBJ       1
    X45       R26       1
    X45       R27       1
    X45       R30       1
    X45       R46       1
    X45       R101      1
    X46       OBJ       1
    X46       R26       1
    X46       R28       1
    X46       R31       1
    X46       R47       1
    X46       R102      1
    X47       OBJ       1
    X47       R26       1
    X47       R29       1
    X47       R32       1
    X47       R48       1
    X47       R103      1
    X48       OBJ       1
    X48       R27       1
    X48       R28       1
    X48       R33       1
    X48       R49       1
    X48       R104      1
    X49       OBJ       1
    X49       R27       1
    X49       R29       1
    X49       R34       1
    X49       R50       1
    X49       R105      1
    X50       OBJ       1
    X50       R28       1
    X50       R29       1
    X50       R35       1
    X50       R51       1
    X50       R106      1
    X51       OBJ       1
    X51       R30       1
    X51       R31       1
    X51       R33       1
    X51       R52       1
    X51       R107      1
    X52       OBJ       1
    X52       R30       1
    X52       R32       1
    X52       R34       1
    X52       R53       1
    X52       R108      1
    X53       OBJ       1
    X53       R31       1
    X53       R32       1
    X53       R35       1
    X53       R54       1
    X53       R109      1
    X54       OBJ       1
    X54       R33       1
    X54       R34       1
    X54       R35       1
    X54       R55       1
    X54       R110      1
    X55       OBJ       1
    X55       R36       1
    X55       R37       1
    X55       R40       1
    X55       R46       1
    X55       R111      1
    X56       OBJ       1
    X56       R36       1
    X56       R38       1
    X56       R41       1
    X56       R47       1
    X56       R112      1
    X57       OBJ       1
    X57       R36       1
    X57       R39       1
    X57       R42       1
    X57       R48       1
    X57       R113      1
    X58       OBJ       1
    X58       R37       1
    X58       R38       1
    X58       R43       1
    X58       R49       1
    X58       R114      1
    X59       OBJ       1
    X59       R37       1
    X59       R39       1
    X59       R44       1
    X59       R50       1
    X59       R115      1
    X60       OBJ       1
    X60       R38       1
    X60       R39       1
    X60       R45       1
    X60       R51       1
    X60       R116      1
    X61       OBJ       1
    X61       R40       1
    X61       R41       1
    X61       R43       1
    X61       R52       1
    X61       R117      1
    X62       OBJ       1
    X62       R40       1
    X62       R42       1
    X62       R44       1
    X62       R53       1
    X62       R118      1
    X63       OBJ       1
    X63       R41       1
    X63       R42       1
    X63       R45       1
    X63       R54       1
    X63       R119      1
    X64       OBJ       1
    X64       R43       1
    X64       R44       1
    X64       R45       1
    X64       R55       1
    X64       R120      1
    X65       OBJ       1
    X65       R46       1
    X65       R47       1
    X65       R49       1
    X65       R52       1
    X65       R121      1
    X66       OBJ       1
    X66       R46       1
    X66       R48       1
    X66       R50       1
    X66       R53       1
    X66       R122      1
    X67       OBJ       1
    X67       R47       1
    X67       R48       1
    X67       R51       1
    X67       R54       1
    X67       R123      1
    X68       OBJ       1
    X68       R49       1
    X68       R50       1
    X68       R51       1
    X68       R55       1
    X68       R124      1
    X69       OBJ       1
    X69       R52       1
    X69       R53       1
    X69       R54       1
    X69       R55       1
    X69       R125      1
    X70       OBJ       1
    X70       R56       1
    X70       R57       1
    X70       R61       1
    X70       R71       1
    X70       R91       1
    X71       OBJ       1
    X71       R56       1
    X71       R58       1
    X71       R62       1
    X71       R72       1
    X71       R92       1
    X72       OBJ       1
    X72       R56       1
    X72       R59       1
    X72       R63       1
    X72       R73       1
    X72       R93       1
    X73       OBJ       1
    X73       R56       1
    X73       R60       1
    X73       R64       1
    X73       R74       1
    X73       R94       1
    X74       OBJ       1
    X74       R57       1
    X74       R58       1
    X74       R65       1
    X74       R75       1
    X74       R95       1
    X75       OBJ       1
    X75       R57       1
    X75       R59       1
    X75       R66       1
    X75       R76       1
    X75       R96       1
    X76       OBJ       1
    X76       R57       1
    X76       R60       1
    X76       R67       1
    X76       R77       1
    X76       R97       1
    X77       OBJ       1
    X77       R58       1
    X77       R59       1
    X77       R68       1
    X77       R78       1
    X77       R98       1
    X78       OBJ       1
    X78       R58       1
    X78       R60       1
    X78       R69       1
    X78       R79       1
    X78       R99       1
    X79       OBJ       1
    X79       R59       1
    X79       R60       1
    X79       R70       1
    X79       R80       1
    X79       R100      1
    X80       OBJ       1
    X80       R61       1
    X80       R62       1
    X80       R65       1
    X80       R81       1
    X80       R101      1
    X81       OBJ       1
    X81       R61       1
    X81       R63       1
    X81       R66       1
    X81       R82       1
    X81       R102      1
    X82       OBJ       1
    X82       R61       1
    X82       R64       1
    X82       R67       1
    X82       R83       1
    X82       R103      1
    X83       OBJ       1
    X83       R62       1
    X83       R63       1
    X83       R68       1
    X83       R84       1
    X83       R104      1
    X84       OBJ       1
    X84       R62       1
    X84       R64       1
    X84       R69       1
    X84       R85       1
    X84       R105      1
    X85       OBJ       1
    X85       R63       1
    X85       R64       1
    X85       R70       1
    X85       R86       1
    X85       R106      1
    X86       OBJ       1
    X86       R65       1
    X86       R66       1
    X86       R68       1
    X86       R87       1
    X86       R107      1
    X87       OBJ       1
    X87       R65       1
    X87       R67       1
    X87       R69       1
    X87       R88       1
    X87       R108      1
    X88       OBJ       1
    X88       R66       1
    X88       R67       1
    X88       R70       1
    X88       R89       1
    X88       R109      1
    X89       OBJ       1
    X89       R68       1
    X89       R69       1
    X89       R70       1
    X89       R90       1
    X89       R110      1
    X90       OBJ       1
    X90       R71       1
    X90       R72       1
    X90       R75       1
    X90       R81       1
    X90       R111      1
    X91       OBJ       1
    X91       R71       1
    X91       R73       1
    X91       R76       1
    X91       R82       1
    X91       R112      1
    X92       OBJ       1
    X92       R71       1
    X92       R74       1
    X92       R77       1
    X92       R83       1
    X92       R113      1
    X93       OBJ       1
    X93       R72       1
    X93       R73       1
    X93       R78       1
    X93       R84       1
    X93       R114      1
    X94       OBJ       1
    X94       R72       1
    X94       R74       1
    X94       R79       1
    X94       R85       1
    X94       R115      1
    X95       OBJ       1
    X95       R73       1
    X95       R74       1
    X95       R80       1
    X95       R86       1
    X95       R116      1
    X96       OBJ       1
    X96       R75       1
    X96       R76       1
    X96       R78       1
    X96       R87       1
    X96       R117      1
    X97       OBJ       1
    X97       R75       1
    X97       R77       1
    X97       R79       1
    X97       R88       1
    X97       R118      1
    X98       OBJ       1
    X98       R76       1
    X98       R77       1
    X98       R80       1
    X98       R89       1
    X98       R119      1
    X99       OBJ       1
    X99       R78       1
    X99       R79       1
    X99       R80       1
    X99       R90       1
    X99       R120      1
    X100      OBJ       1
    X100      R81       1
    X100      R82       1
    X100      R84       1
    X100      R87       1
    X100      R121      1
    X101      OBJ       1
    X101      R81       1
    X101      R83       1
    X101      R85       1
    X101      R88       1
    X101      R122      1
    X102      OBJ       1
    X102      R82       1
    X102      R83       1
    X102      R86       1
    X102      R89       1
    X102      R123      1
    X103      OBJ       1
    X103      R84       1
    X103      R85       1
    X103      R86       1
    X103      R90       1
    X103      R124      1
    X104      OBJ       1
    X104      R87       1
    X104      R88       1
    X104      R89       1
    X104      R90       1
    X104      R125      1
    X105      OBJ       1
    X105      R91       1
    X105      R92       1
    X105      R95       1
    X105      R101      1
    X105      R111      1
    X106      OBJ       1
    X106      R91       1
    X106      R93       1
    X106      R96       1
    X106      R102      1
    X106      R112      1
    X107      OBJ       1
    X107      R91       1
    X107      R94       1
    X107      R97       1
    X107      R103      1
    X107      R113      1
    X108      OBJ       1
    X108      R92       1
    X108      R93       1
    X108      R98       1
    X108      R104      1
    X108      R114      1
    X109      OBJ       1
    X109      R92       1
    X109      R94       1
    X109      R99       1
    X109      R105      1
    X109      R115      1
    X110      OBJ       1
    X110      R93       1
    X110      R94       1
    X110      R100      1
    X110      R106      1
    X110      R116      1
    X111      OBJ       1
    X111      R95       1
    X111      R96       1
    X111      R98       1
    X111      R107      1
    X111      R117      1
    X112      OBJ       1
    X112      R95       1
    X112      R97       1
    X112      R99       1
    X112      R108      1
    X112      R118      1
    X113      OBJ       1
    X113      R96       1
    X113      R97       1
    X113      R100      1
    X113      R109      1
    X113      R119      1
    X114      OBJ       1
    X114      R98       1
    X114      R99       1
    X114      R100      1
    X114      R110      1
    X114      R120      1
    X115      OBJ       1
    X115      R101      1
    X115      R102      1
    X115      R104      1
    X115      R107      1
    X115      R121      1
    X116      OBJ       1
    X116      R101      1
    X116      R103      1
    X116      R105      1
    X116      R108      1
    X116      R122      1
    X117      OBJ       1
    X117      R102      1
    X117      R103      1
    X117      R106      1
    X117      R109      1
    X117      R123      1
    X118      OBJ       1
    X118      R104      1
    X118      R105      1
    X118      R106      1
    X118      R110      1
    X118      R124      1
    X119      OBJ       1
    X119      R107      1
    X119      R108      1
    X119      R109      1
    X119      R110      1
    X119      R125      1
    X120      OBJ       1
    X120      R111      1
    X120      R112      1
    X120      R114      1
    X120      R117      1
    X120      R121      1
    X121      OBJ       1
    X121      R111      1
    X121      R113      1
    X121      R115      1
    X121      R118      1
    X121      R122      1
    X122      OBJ       1
    X122      R112      1
    X122      R113      1
    X122      R116      1
    X122      R119      1
    X122      R123      1
    X123      OBJ       1
    X123      R114      1
    X123      R115      1
    X123      R116      1
    X123      R120      1
    X123      R124      1
    X124      OBJ       1
    X124      R117      1
    X124      R118      1
    X124      R119      1
    X124      R120      1
    X124      R125      1
    X125      OBJ       1
    X125      R121      1
    X125      R122      1
    X125      R123      1
    X125      R124      1
    X125      R125      1
RHS
    RHS1      R0        1
    RHS1      R1        1
    RHS1      R2        1
    RHS1      R3        1
    RHS1      R4        1
    RHS1      R5        1
    RHS1      R6        1
    RHS1      R7        1
    RHS1      R8        1
    RHS1      R9        1
    RHS1      R10       1
    RHS1      R11       1
    RHS1      R12       1
    RHS1      R13       1
    RHS1      R14       1
    RHS1      R15       1
    RHS1      R16       1
    RHS1      R17       1
    RHS1      R18       1
    RHS1      R19       1
    RHS1      R20       1
    RHS1      R21       1
    RHS1      R22       1
    RHS1      R23       1
    RHS1      R24       1
    RHS1      R25       1
    RHS1      R26       1
    RHS1      R27       1
    RHS1      R28       1
    RHS1      R29       1
    RHS1      R30       1
    RHS1      R31       1
    RHS1      R32       1
    RHS1      R33       1
    RHS1      R34       1
    RHS1      R35       1
    RHS1      R36       1
    RHS1      R37       1
    RHS1      R38       1
    RHS1      R39       1
    RHS1      R40       1
    RHS1      R41       1
    RHS1      R42       1
    RHS1      R43       1
    RHS1      R44       1
    RHS1      R45       1
    RHS1      R46       1
    RHS1      R47       1
    RHS1      R48       1
    RHS1      R49       1
    RHS1      R50       1
    RHS1      R51       1
    RHS1      R52       1
    RHS1      R53       1
    RHS1      R54       1
    RHS1      R55       1
    RHS1      R56       1
    RHS1      R57       1
    RHS1      R58       1
    RHS1      R59       1
    RHS1      R60       1
    RHS1      R61       1
    RHS1      R62       1
    RHS1      R63       1
    RHS1      R64       1
    RHS1      R65       1
    RHS1      R66       1
    RHS1      R67       1
    RHS1      R68       1
    RHS1      R69       1
    RHS1      R70       1
    RHS1      R71       1
    RHS1      R72       1
    RHS1      R73       1
    RHS1      R74       1
    RHS1      R75       1
    RHS1      R76       1
    RHS1      R77       1
    RHS1      R78       1
    RHS1      R79       1
    RHS1      R80       1
    RHS1      R81       1
    RHS1      R82       1
    RHS1      R83       1
    RHS1      R84       1
    RHS1      R85       1
    RHS1      R86       1
    RHS1      R87       1
    RHS1      R88       1
    RHS1      R89       1
    RHS1      R90       1
    RHS1      R91       1
    RHS1      R92       1
    RHS1      R93       1
    RHS1      R94       1
    RHS1      R95       1
    RHS1      R96       1
    RHS1      R97       1
    RHS1      R98       1
    RHS1      R99       1
    RHS1      R100      1
    RHS1      R101      1
    RHS1      R102      1
    RHS1      R103      1
    RHS1      R104      1
    RHS1      R105      1
    RHS1      R106      1
    RHS1      R107      1
    RHS1      R108      1
    RHS1      R109      1
    RHS1      R110      1
    RHS1      R111      1
    RHS1      R112      1
    RHS1      R113      1
    RHS1      R114      1
    RHS1      R115      1
    RHS1      R116      1
    RHS1      R117      1
    RHS1      R118      1
    RHS1      R119      1
    RHS1      R120      1
    RHS1      R121      1
    RHS1      R122      1
    RHS1      R123      1
    RHS1      R124      1
    RHS1      R125      1
BOUNDS
 UP BND1      X0        1
 UP BND1      X1        1
 UP BND1      X2        1
 UP BND1      X3        1
 UP BND1      X4        1
 UP BND1      X5        1
 UP BND1      X6        1
 UP BND1      X7        1
 UP BND1      X8        1
 UP BND1      X9        1
 UP BND1      X10       1
 UP BND1      X11       1
 UP BND1      X12       1
 UP BND1      X13       1
 UP BND1      X14       1
 UP BND1      X15       1
 UP BND1      X16       1
 UP BND1      X17       1
 UP BND1      X18       1
 UP BND1      X19       1
 UP BND1      X20       1
 UP BND1      X21       1
 UP BND1      X22       1
 UP BND1      X23       1
 UP BND1      X24       1
 UP BND1      X25       1
 UP BND1      X26       1
 UP BND1      X27       1
 UP BND1      X28       1
 UP BND1      X29       1
 UP BND1      X30       1
 UP BND1      X31       1
 UP BND1      X32       1
 UP BND1      X33       1
 UP BND1      X34       1
 UP BND1      X35       1
 UP BND1      X36       1
 UP BND1      X37       1
 UP BND1      X38       1
 UP BND1      X39       1
 UP BND1      X40       1
 UP BND1      X41       1
 UP BND1      X42       1
 UP BND1      X43       1
 UP BND1      X44       1
 UP BND1      X45       1
 UP BND1      X46       1
 UP BND1      X47       1
 UP BND1      X48       1
 UP BND1      X49       1
 UP BND1      X50       1
 UP BND1      X51       1
 UP BND1      X52       1
 UP BND1      X53       1
 UP BND1      X54       1
 UP BND1      X55       1
 UP BND1      X56       1
 UP BND1      X57       1
 UP BND1      X58       1
 UP BND1      X59       1
 UP BND1      X60       1
 UP BND1      X61       1
 UP BND1      X62       1
 UP BND1      X63       1
 UP BND1      X64       1
 UP BND1      X65       1
 UP BND1      X66       1
 UP BND1      X67       1
 UP BND1      X68       1
 UP BND1      X69       1
 UP BND1      X70       1
 UP BND1      X71       1
 UP BND1      X72       1
 UP BND1      X73       1
 UP BND1      X74       1
 UP BND1      X75       1
 UP BND1      X76       1
 UP BND1      X77       1
 UP BND1      X78       1
 UP BND1      X79       1
 UP BND1      X80       1
 UP BND1      X81       1
 UP BND1      X82       1
 UP BND1      X83       1
 UP BND1      X84       1
 UP BND1      X85       1
 UP BND1      X86       1
 UP BND1      X87       1
 UP BND1      X88       1
 UP BND1      X89       1
 UP BND1      X90       1
 UP BND1      X91       1
 UP BND1      X92       1
 UP BND1      X93       1
 UP BND1      X94       1
 UP BND1      X95       1
 UP BND1      X96       1
 UP BND1      X97       1
 UP BND1      X98       1
 UP BND1      X99       1
 UP BND1      X100      1
 UP BND1      X101      1
 UP BND1      X102      1
 UP BND1      X103      1
 UP BND1      X104      1
 UP BND1      X105      1
 UP BND1      X106      1
 UP BND1      X107      1
 UP BND1      X108      1
 UP BND1      X109      1
 UP BND1      X110      1
 UP BND1      X111      1
 UP BND1      X112      1
 UP BND1      X113      1
 UP BND1      X114      1
 UP BND1      X115      1
 UP BND1      X116      1
 UP BND1      X117      1
 UP BND1      X118      1
 UP BND1      X119      1
 UP BND1      X120      1
 UP BND1      X121      1
 UP BND1      X122      1
 UP BND1      X123      1
 UP BND1      X124      1
 UP BND1      X125      1
ENDATA
